nApps = 234
nRes = 9
nActs = 454
nNetworks = 6

assignmentToResources = [2,2,1,2,1,3,3,1,1,3,3,3,1,2,3,3,1,3,3,2,1,2,2,1,1,1,3,1,3,3,2,1,2,2,3,1,3,1,2,3,2,3,3,3,2,2,3,1,2,3,3,3,1,3,3,2,3,3,3,1,2,3,1,1,2,1,3,2,3,3,2,1,2,2,2,2,3,1,3,2,2,2,2,1,3,2,1,3,2,3,1,1,1,1,3,2,1,2,2,3,5,5,5,5,4,4,4,4,6,4,4,4,4,4,4,4,6,6,6,6,6,6,4,4,4,5,5,5,5,6,6,4,4,4,4,6,6,6,4,4,5,5,5,5,5,4,4,4,4,4,4,4,4,4,6,6,6,4,4,6,6,6,6,5,5,5,5,5,5,5,6,6,6,4,4,6,4,4,4,4,4,5,6,6,6,6,6,6,6,6,5,6,6,6,6,6,4,4,5,5,5,5,6,6,6,6,6,6,6,5,5,6,6,6,4,4,4,4,5,4,4,5,4,4,6,6,5,5,5,6,6,6,4,4,5,6,6,6,6,5,5,4,6,4,6,6,5,4,4,4,4,4,4,4,6,6,6,4,4,5,5,7,6,8,5,7,6,8,6,8,5,9,4,9,6,8,5,9,6,8,6,8,5,9,5,9,4,8,5,9,4,8,6,7,9,9,9,7,8,9,8,8,7,8,9,8,8,8,9,9,7,8,7,8,7,7,9,9,9,9,9,9,9,8,8,8,8,9,9,7,8,7,9,9,9,9,7,9,7,8,9,9,9,8,9,8,8,9,8,8,7,9,8,7,7,8,7,9,7,9,9,7,9,9,8,7,7,9,8,7,8,9,8,8,8,9,8,8,8,7,7,7,8,7,9,7,7,7,8,7,9,9,7,9,9,7,7,7,8,7,8,7,7,9,9,8,8,7,8,8,8,9,9,8,9,7,9,9,8,7,9,9,7,7,8,7,8,8,9,8,8,8,8,9,9,8,7,9,8,8,9,8,9,8,9,8,8,9,8,8,8,8,9,9];

processingTimes = [104,120,88,152,128,136,136,72,168,88,72,96,88,64,72,120,64,160,128,72,152,168,112,88,88,136,160,144,80,96,72,56,112,136,128,128,128,136,72,88,88,112,104,128,136,112,120,128,136,152,120,112,136,128,160,136,104,152,128,104,112,136,64,136,144,128,136,112,64,128,112,104,72,168,120,104,64,160,144,120,88,128,136,64,112,56,96,136,96,112,80,104,152,168,136,136,128,176,64,112,4,4,8,3,8,500,500,4,500,4,8,8,4,3,3,3,3,13,500,3,4,4,3,4,4,3,3,5,4,4,4,3,3,3,4,500,3,4,3,500,23,4,500,3,4,5,4,4,8,3,3,3,500,4,3,13,13,3,3,3,500,500,3,5,500,3,500,3,3,3,8,3,3,13,8,3,4,4,3,4,4,4,3,4,4,500,4,4,3,3,500,4,3,3,3,3,4,3,3,3,3,3,4,3,8,500,4,3,500,3,5,3,13,3,3,500,4,500,4,3,8,4,4,4,4,4,3,500,500,3,13,500,4,500,8,100,500,4,3,500,500,500,3,3,500,4,5,3,8,8,4,4,4,3,500,4,4,4,3,3,500,500,500,500,500,500,4,4,28,28,3,3,500,500,500,500,500,500,500,500,500,500,23,23,3,3,8,8,3,3,10,10,7,7,4,4,8,3,8,500,500,4,500,4,8,8,4,3,3,3,3,13,500,3,4,4,3,4,4,3,3,5,4,4,4,3,3,3,4,500,3,4,3,500,23,4,500,3,4,5,4,4,8,3,3,3,500,4,3,13,13,3,3,3,500,500,3,5,500,3,500,3,3,3,8,3,3,13,8,3,4,4,3,4,4,4,3,4,4,500,4,4,3,3,500,4,3,3,3,3,4,3,3,3,3,3,4,3,8,500,4,3,500,3,5,3,13,3,3,500,4,500,4,3,8,4,4,4,4,4,3,500,500,3,13,500,4,500,8,100,500,4,3,500,500,500,3,3,500,4,5,3,8,8,4,4,4,3,500,4,4,4,3,3];

periods = [100000,20000,20000,2000,20000,20000,50000,10000,10000,100000,10000,50000,20000,100000,100000,20000,10000,5000,10000,100000,20000,20000,50000,20000,100000,5000,20000,10000,5000,100000,100000,20000,100000,20000,20000,20000,10000,20000,100000,50000,2000,100000,100000,20000,50000,10000,10000,10000,100000,100000,100000,100000,5000,100000,10000,10000,1000,100000,10000,20000,20000,100000,100000,10000,20000,10000,100000,10000,20000,10000,100000,10000,20000,100000,20000,20000,1000,1000,20000,20000,100000,1000,20000,10000,20000,10000,20000,10000,5000,50000,20000,100000,10000,20000,10000,10000,10000,20000,20000,50000,100000,100000,100000,20000,20000,20000,20000,20000,20000,10000,10000,10000,10000,10000,10000,10000,100000,100000,10000,10000,10000,10000,20000,20000,20000,100000,100000,100000,100000,100000,20000,10000,10000,10000,10000,5000,5000,5000,20000,20000,20000,20000,20000,20000,50000,20000,20000,20000,20000,100000,100000,100000,5000,5000,20000,20000,20000,10000,10000,5000,5000,5000,100000,100000,20000,20000,20000,20000,20000,20000,20000,20000,20000,20000,20000,10000,20000,20000,20000,20000,20000,100000,50000,50000,100000,100000,20000,20000,20000,20000,10000,10000,10000,10000,10000,10000,10000,10000,100000,100000,100000,100000,100000,100000,100000,100000,100000,10000,10000,10000,10000,1000,100000,10000,20000,20000,20000,20000,20000,10000,10000,20000,10000,10000,100000,100000,10000,10000,10000,10000,10000,10000,10000,10000,100000,1000,20000,20000,20000,20000,20000,10000,20000,20000,10000,10000,5000,100000,100000,100000,100000,10000,10000,20000,10000,10000,10000,10000,10000,20000,20000,20000,20000,20000,20000,20000,50000,50000,50000,50000,50000,50000,10000,10000,10000,10000,100000,100000,100000,100000,100000,100000,20000,20000,10000,10000,10000,10000,1000,1000,1000,1000,1000,1000,100000,100000,100000,20000,20000,20000,20000,20000,20000,10000,10000,10000,10000,10000,10000,10000,100000,100000,10000,10000,10000,10000,20000,20000,20000,100000,100000,100000,100000,100000,20000,10000,10000,10000,10000,5000,5000,5000,20000,20000,20000,20000,20000,20000,50000,20000,20000,20000,20000,100000,100000,100000,5000,5000,20000,20000,20000,10000,10000,5000,5000,5000,100000,100000,20000,20000,20000,20000,20000,20000,20000,20000,20000,20000,20000,10000,20000,20000,20000,20000,20000,100000,50000,50000,100000,100000,20000,20000,20000,20000,10000,10000,10000,10000,10000,10000,10000,10000,100000,100000,100000,100000,100000,100000,100000,100000,100000,10000,10000,10000,10000,1000,100000,10000,20000,20000,20000,20000,20000,10000,10000,20000,10000,10000,100000,100000,10000,10000,10000,10000,10000,10000,10000,10000,100000,1000,20000,20000,20000,20000,20000,10000,20000,20000,10000,10000,5000,100000,100000,100000,100000,10000,10000,20000,10000,10000,10000,10000,10000,20000];

assignmentToClusters = [1,2,3,4,5,6,7,8,9,10,11,7,12,13,14,15,16,17,8,18,3,19,7,20,21,22,23,24,25,18,26,27,28,29,3,27,30,31,13,32,33,18,13,19,7,8,34,35,18,36,37,38,39,40,41,30,42,43,44,45,46,47,48,30,49,50,51,52,53,54,55,56,49,57,58,49,42,42,59,3,60,42,61,62,63,64,65,66,67,7,68,69,70,12,71,72,73,49,3,74,75,76,77,78,79,80,81,82,83,84,85,86,87,88,89,90,91,92,93,94,95,96,97,98,99,100,101,102,103,104,105,106,107,108,109,110,111,112,113,114,115,116,117,118,119,120,121,122,123,124,125,126,127,128,129,130,131,132,133,134,135,136,137,138,139,140,141,142,143,144,145,146,147,148,149,150,151,152,153,154,155,156,157,158,159,160,161,162,163,164,165,166,167,168,169,170,171,172,173,174,175,176,177,178,179,180,181,182,183,184,185,186,187,188,189,190,191,192,193,194,195,196,197,198,199,200,201,202,203,204,205,206,207,208,209,210,211,212,213,214,215,216,217,218,219,220,221,222,223,224,225,226,227,228,229,230,231,232,233,234,3,3,3,3,3,3,7,7,7,7,7,7,8,8,8,8,13,13,18,18,18,18,19,19,30,30,30,30,42,42,42,42,42,42,75,76,77,78,79,80,81,82,83,84,85,86,87,88,89,90,91,92,93,94,95,96,97,98,99,100,101,102,103,104,105,106,107,108,109,110,111,112,113,114,115,116,117,118,119,120,121,122,123,124,125,126,127,128,129,130,131,132,133,134,135,136,137,138,139,140,141,142,143,144,145,146,147,148,149,150,151,152,153,154,155,156,157,158,159,160,161,162,163,164,165,166,167,168,169,170,171,172,173,174,175,176,177,178,179,180,181,182,183,184,185,186,187,188,189,190,191,192,193,194,195,196,197,198,199,200,201,202,203,204,205,206,207,208,209,210,211,212,213,214,215,216,217,218,219,220,221,222,223,224,225,226,227,228,229,230,231,232,233,234];

precedenceAdjList = [[],[],[261],[],[],[],[89],[],[],[],[],[271],[93],[38],[],[],[],[],[273],[279],[2,265],[],[],[],[],[],[],[],[],[],[],[],[],[],[],[31],[285],[],[],[],[],[],[277],[283],[267,269],[275],[],[],[19,281],[],[],[],[],[],[],[287],[289],[],[],[],[],[],[],[],[72],[],[],[],[],[],[],[],[],[],[],[97],[],[293],[],[263],[],[291],[],[],[],[],[],[],[],[],[],[],[],[],[],[],[],[64],[],[],[],[],[],[],[],[],[],[],[],[],[],[],[],[],[],[],[],[],[],[],[],[],[],[],[],[],[],[],[],[],[],[],[],[],[],[],[],[],[],[],[],[],[],[],[],[],[],[],[],[],[],[],[],[],[],[],[],[],[],[],[],[],[],[],[],[],[],[],[],[],[],[],[],[],[],[],[],[],[],[],[],[],[],[],[],[],[],[],[],[],[],[],[],[],[],[],[],[],[],[],[],[],[],[],[],[],[],[],[],[],[],[],[],[],[],[],[],[],[],[],[],[],[],[],[],[],[],[],[],[],[],[],[],[],[],[],[],[],[],[],[],[],[],[],[],[],[],[],[],[],[],[],[],[],[],[],[],[],[],[],[79],[260],[34],[262],[98],[264],[11],[266],[6],[268],[22],[270],[7],[272],[18],[274],[13],[276],[29],[278],[41],[280],[21],[282],[55],[284],[63],[286],[81],[288],[77],[290],[76],[292],[100],[101],[102],[103],[104],[105],[106],[107],[108],[109],[110],[111],[112],[113],[114],[115],[116],[117],[118],[119],[120],[121],[122],[123],[124],[125],[126],[127],[128],[129],[130],[131],[132],[133],[134],[135],[136],[137],[138],[139],[140],[141],[142],[143],[144],[145],[146],[147],[148],[149],[150],[151],[152],[153],[154],[155],[156],[157],[158],[159],[160],[161],[162],[163],[164],[165],[166],[167],[168],[169],[170],[171],[172],[173],[174],[175],[176],[177],[178],[179],[180],[181],[182],[183],[184],[185],[186],[187],[188],[189],[190],[191],[192],[193],[194],[195],[196],[197],[198],[199],[200],[201],[202],[203],[204],[205],[206],[207],[208],[209],[210],[211],[212],[213],[214],[215],[216],[217],[218],[219],[220],[221],[222],[223],[224],[225],[226],[227],[228],[229],[230],[231],[232],[233],[234],[235],[236],[237],[238],[239],[240],[241],[242],[243],[244],[245],[246],[247],[248],[249],[250],[251],[252],[253],[254],[255],[256],[257],[258],[259]];